\ SCIP STATISTICS
\   Problem name     : neos-2656603-coxs
\   Variables        : 524 (186 binary, 338 integer, 0 implicit integer, 0 continuous)
\   Constraints      : 342
Minimize
 Obj: +0.0010404 C0524 +0.0059406 C0507 +0.0056577 C0506 +0.0053882 C0505 +0.0051316 C0504 +0.0048872 C0503
      +0.0046544 C0502 +0.0044327 C0501 +0.0042216 C0500 +0.0040205 C0499 +0.003829 C0498 +0.0036466 C0497
      +0.0034729 C0496 +0.0033075 C0495 +0.00315 C0494 +0.003 C0493 +0.0062377 C0508 +0.0009436 C0522
      +0.0008986 C0521 +0.0008558 C0520 +0.000815 C0519 +0.0007761 C0518 +0.0007391 C0517 +0.0007039 C0516
      +0.0006703 C0515 +0.0006383 C0514 +0.0006079 C0513 +0.0005789 C0512 +0.0005513 C0511 +0.000525 C0510
      +0.0005 C0509 +0.0009908 C0523
Subject to
 R0001: +0.165 C0001 +0.19965 C0003 +0.2415765 C0007 +0.08 C0013 +0.088 C0019 +0.0968 C0026 -1.6 C0066
  -1.156 C0068 -0.83521 C0072 +1 C0134 +0.5 C0140 +0.4 C0155 +0.15 C0170 +0.1815 C0199 +0.219615 C0226
  +0.26573415 C0251 +0.10648 C0287 +0.117128 C0294 +0.1288408 C0301 +0.14172488 C0308 -1.36 C0330 -0.9826 C0359
  -0.7099285 C0386 -0.8 C0411 -0.68 C0421 -0.578 C0430 -0.4913 C0438 -0.417605 C0446 -0.35496425 C0454
  +2 C0469 <= +2.3
 R0002: +0.1815 C0002 +0.219615 C0005 +0.26573415 C0010 +0.08 C0014 +0.088 C0020 +0.0968 C0027 +0.10648 C0034
  -1.3736 C0067 -0.992426 C0070 -0.717027785 C0075 -0.808 C0081 -0.6868 C0087 -0.58378 C0094 +1.01 C0135
  +0.55 C0141 +0.44 C0156 +0.15 C0171 +0.165 C0185 +0.19965 C0213 +0.2415765 C0239 +0.117128 C0295 +0.1288408 C0302
  +0.14172488 C0309 -1.616 C0315 -1.16756 C0345 -0.8435621 C0373 -0.609473617 C0399 -0.496213 C0439 -0.42178105 C0447
  -0.358513893 C0455 -0.304736809 C0462 +2.02 C0470 <= +2.3
 R0003: +0.19965 C0004 +0.2415765 C0008 +0.08 C0015 +0.088 C0021 +0.0968 C0028 +0.10648 C0035 +0.117128 C0042
  -1.1792356 C0069 -0.851997721 C0073 -0.615568353 C0078 -0.81608 C0082 -0.693668 C0088 -0.5896178 C0095
  -0.50117513 C0102 +1.0201 C0136 +0.605 C0142 +0.484 C0157 +0.15 C0172 +0.165 C0186 +0.1815 C0200 +0.219615 C0227
  +0.26573415 C0252 +0.1288408 C0303 +0.14172488 C0310 -1.63216 C0316 -1.387336 C0331 -1.00235026 C0360
  -0.724198063 C0387 -0.425998861 C0448 -0.362099031 C0456 -0.307784177 C0463 +2.0402 C0471 <= +2.3
 R0004: +0.219615 C0006 +0.26573415 C0011 +0.08 C0016 +0.088 C0022 +0.0968 C0029 +0.10648 C0036 +0.117128 C0043
  +0.1288408 C0050 -1.012373763 C0071 -0.731440043 C0076 -0.8242408 C0083 -0.70060468 C0089 -0.595513978 C0096
  -0.506186881 C0103 -0.430258849 C0110 +1.030301 C0137 +0.6655 C0143 +0.5324 C0158 +0.15 C0173 +0.165 C0187
  +0.1815 C0201 +0.19965 C0214 +0.2415765 C0240 +0.14172488 C0311 -1.6484816 C0317 -1.40120936 C0332 -1.191027956 C0346
  -0.860517698 C0374 -0.621724037 C0400 -0.365720022 C0457 -0.310862018 C0464 +2.060602 C0472 <= +2.3
 R0005: +0.2415765 C0009 +0.08 C0017 +0.088 C0023 +0.0968 C0030 +0.10648 C0037 +0.117128 C0044 +0.1288408 C0051
  +0.14172488 C0058 -0.869122909 C0074 -0.627941301 C0079 -0.83248328 C0084 -0.707610788 C0090 -0.60146917 C0097
  -0.511248794 C0104 -0.434561475 C0111 -0.369377254 C0118 +1.0406041 C0138 +0.73205 C0144 +0.58564 C0159
  +0.15 C0174 +0.165 C0188 +0.1815 C0202 +0.19965 C0215 +0.219615 C0228 +0.26573415 C0253 -1.66496648 C0318
  -1.415221508 C0333 -1.202938282 C0347 -1.02249754 C0361 -0.738754472 C0388 -0.313970666 C0465 +2.0812081 C0473
  <= +2.3
 R0006: +0.26573415 C0012 +0.08 C0018 +0.088 C0024 +0.0968 C0031 +0.10648 C0038 +0.117128 C0045 +0.1288408 C0052
  +0.14172488 C0059 -0.746142024 C0077 -0.84080816 C0085 -0.714686936 C0091 -0.607483896 C0098 -0.516361311 C0105
  -0.438907115 C0112 -0.373071047 C0119 -0.31711039 C0126 +1.0510102 C0139 +0.805255 C0145 +0.644204 C0160
  +0.15 C0175 +0.165 C0189 +0.1815 C0203 +0.19965 C0216 +0.219615 C0229 +0.2415765 C0241 -1.68161616 C0319
  -1.429373736 C0334 -1.214967676 C0348 -1.032722524 C0362 -0.877814146 C0375 -0.63422072 C0401 +2.1020202 C0474
  <= +2.3
 R0007: +0.088 C0025 +0.0968 C0032 +0.10648 C0039 +0.117128 C0046 +0.1288408 C0053 +0.14172488 C0060 -0.640562957 C0080
  -0.84921632 C0086 -0.721833872 C0092 -0.613558791 C0099 -0.521524973 C0106 -0.443296227 C0113 -0.376801793 C0120
  -0.320281524 C0127 +0.8857805 C0146 +0.7086244 C0161 +0.15 C0176 +0.165 C0190 +0.1815 C0204 +0.19965 C0217
  +0.219615 C0230 +0.2415765 C0242 +0.26573415 C0254 +0.08 C0263 -1.6984324 C0320 -1.44366754 C0335 -1.227117409 C0349
  -1.043049798 C0363 -0.886592328 C0376 -0.753603479 C0389 +2.1230405 C0475 +1.0615204 C0484 <= +2.3
 R0008: +0.0968 C0033 +0.10648 C0040 +0.117128 C0047 +0.1288408 C0054 +0.14172488 C0061 -0.729052276 C0093
  -0.619694435 C0100 -0.526740269 C0107 -0.447729229 C0114 -0.380569845 C0121 -0.323484368 C0128 +0.9743586 C0147
  +0.7794869 C0162 +0.15 C0177 +0.165 C0191 +0.1815 C0205 +0.19965 C0218 +0.219615 C0231 +0.2415765 C0243
  +0.26573415 C0255 +0.08 C0264 +0.088 C0272 -1.7154168 C0321 -1.45810428 C0336 -1.239388638 C0350 -1.053480342 C0364
  -0.895458291 C0377 -0.761139547 C0390 -0.646968615 C0402 -0.85770856 C0412 +2.144271 C0476 +1.0721357 C0485
  <= +2.3
 R0009: +0.10648 C0041 +0.117128 C0048 +0.1288408 C0055 +0.14172488 C0062 -0.625891404 C0101 -0.532007693 C0108
  -0.452206539 C0115 -0.384375558 C0122 -0.326719225 C0129 +1.0717945 C0148 +0.8574356 C0163 +0.15 C0178
  +0.165 C0192 +0.1815 C0206 +0.19965 C0219 +0.219615 C0232 +0.2415765 C0244 +0.26573415 C0256 +0.08 C0265
  +0.088 C0273 +0.0968 C0280 -1.73257104 C0322 -1.472685384 C0337 -1.251782576 C0351 -1.06401519 C0365
  -0.904412911 C0378 -0.768750975 C0391 -0.653438329 C0403 -0.86628568 C0413 -0.736342828 C0422 +2.1657138 C0477
  +1.0828571 C0486 <= +2.3
 R0010: +0.117128 C0049 +0.1288408 C0056 +0.14172488 C0063 -0.537327784 C0109 -0.456728617 C0116 -0.388219324 C0123
  -0.329986426 C0130 +1.178974 C0149 +0.9431792 C0164 +0.15 C0179 +0.165 C0193 +0.1815 C0207 +0.19965 C0220
  +0.219615 C0233 +0.2415765 C0245 +0.26573415 C0257 +0.08 C0266 +0.088 C0274 +0.0968 C0281 +0.10648 C0288
  -1.7498968 C0323 -1.48741228 C0338 -1.264300438 C0352 -1.074655372 C0366 -0.913457066 C0379 -0.776438506 C0392
  -0.659972731 C0404 -0.87494856 C0414 -0.743706276 C0423 -0.632150335 C0431 +2.187371 C0478 +1.0936857 C0487
  <= +2.3
 R0011: +0.1288408 C0057 +0.14172488 C0064 -0.461295921 C0117 -0.392101533 C0124 -0.333286303 C0131 +1.2968714 C0150
  +1.0374972 C0165 +0.15 C0180 +0.165 C0194 +0.1815 C0208 +0.19965 C0221 +0.219615 C0234 +0.2415765 C0246
  +0.26573415 C0258 +0.08 C0267 +0.088 C0275 +0.0968 C0282 +0.10648 C0289 +0.117128 C0296 -1.76739584 C0324
  -1.502286464 C0339 -1.276943494 C0353 -1.08540197 C0367 -0.922591675 C0380 -0.784202923 C0393 -0.666572485 C0405
  -0.88369808 C0415 -0.751143368 C0424 -0.638471863 C0432 -0.542701083 C0440 +2.2092448 C0479 +1.1046226 C0488
  <= +2.3
 R0012: +0.14172488 C0065 -0.396022574 C0125 -0.336619188 C0132 +1.4265586 C0151 +1.141247 C0166 +0.15 C0181
  +0.165 C0195 +0.1815 C0209 +0.19965 C0222 +0.219615 C0235 +0.2415765 C0247 +0.26573415 C0259 +0.08 C0268
  +0.088 C0276 +0.0968 C0283 +0.10648 C0290 +0.117128 C0297 +0.1288408 C0304 -1.78506984 C0325 -1.517309364 C0340
  -1.289712959 C0354 -1.096256015 C0368 -0.931817613 C0381 -0.792044971 C0394 -0.673238226 C0406 -0.89253512 C0416
  -0.758654852 C0425 -0.644856624 C0433 -0.548128131 C0441 -0.465908911 C0449 +2.2313373 C0480 +1.1156689 C0489
  <= +2.3
 R0013: -0.339985383 C0133 +1.5692145 C0152 +1.2553717 C0167 +0.15 C0182 +0.165 C0196 +0.1815 C0210 +0.19965 C0223
  +0.219615 C0236 +0.2415765 C0248 +0.26573415 C0260 +0.08 C0269 +0.088 C0277 +0.0968 C0284 +0.10648 C0291
  +0.117128 C0298 +0.1288408 C0305 +0.14172488 C0312 -1.80292056 C0326 -1.532482476 C0341 -1.302610105 C0355
  -1.107218589 C0369 -0.941135801 C0382 -0.79996543 C0395 -0.679970616 C0407 -0.90146048 C0417 -0.766241408 C0426
  -0.651305197 C0434 -0.553609417 C0442 -0.470568005 C0450 -0.399982804 C0458 +2.2536507 C0481 +1.1268256 C0490
  <= +2.3
 R0014: +1.726136 C0153 +1.3809089 C0168 +0.15 C0183 +0.165 C0197 +0.1815 C0211 +0.19965 C0224 +0.219615 C0237
  +0.2415765 C0249 +0.26573415 C0261 +0.08 C0270 +0.088 C0278 +0.0968 C0285 +0.10648 C0292 +0.117128 C0299
  +0.1288408 C0306 +0.14172488 C0313 -1.82094984 C0327 -1.547807364 C0342 -1.315636259 C0356 -1.11829082 C0370
  -0.950547197 C0383 -0.807965118 C0396 -0.68677035 C0408 -0.91047512 C0418 -0.773903852 C0427 -0.657818274 C0435
  -0.559145533 C0443 -0.475273703 C0451 -0.403982648 C0459 -0.34338525 C0466 +2.2761873 C0482 +1.1380939 C0491
  <= +2.3
 R0015: +1.8987496 C0154 +1.5189998 C0169 +0.15 C0184 +0.165 C0198 +0.1815 C0212 +0.19965 C0225 +0.219615 C0238
  +0.2415765 C0250 +0.26573415 C0262 +0.08 C0271 +0.088 C0279 +0.0968 C0286 +0.10648 C0293 +0.117128 C0300
  +0.1288408 C0307 +0.14172488 C0314 -1.83915936 C0328 -1.563285456 C0343 -1.328792638 C0357 -1.129473742 C0371
  -0.960052681 C0384 -0.816044779 C0397 -0.693638062 C0409 -0.91957992 C0419 -0.781642932 C0428 -0.664396492 C0436
  -0.564737018 C0444 -0.480026466 C0452 -0.408022496 C0460 -0.346819121 C0467 +2.2989492 C0483 +1.1494749 C0492
  <= +2.3
 R0016: +3600 C0001 +2800 C0003 +2000 C0007 +2000 C0013 +1800 C0019 +1600 C0026 +4000 C0170 +3200 C0199
  +2400 C0226 +1600 C0251 +1400 C0287 +1200 C0294 +1000 C0301 +800 C0308 +1 C0493 +1 C0509 >= +7000
 R0017: +3200 C0002 +2400 C0005 +1600 C0010 +2000 C0014 +1800 C0020 +1600 C0027 +1400 C0034 +4000 C0171
  +3600 C0185 +2800 C0213 +2000 C0239 +1200 C0295 +1000 C0302 +800 C0309 +1 C0494 +1 C0510 >= +7350
 R0018: +2800 C0004 +2000 C0008 +2000 C0015 +1800 C0021 +1600 C0028 +1400 C0035 +1200 C0042 +4000 C0172
  +3600 C0186 +3200 C0200 +2400 C0227 +1600 C0252 +1000 C0303 +800 C0310 +1 C0495 +1 C0511 >= +7718
 R0019: +2400 C0006 +1600 C0011 +2000 C0016 +1800 C0022 +1600 C0029 +1400 C0036 +1200 C0043 +1000 C0050
  +4000 C0173 +3600 C0187 +3200 C0201 +2800 C0214 +2000 C0240 +800 C0311 +1 C0496 +1 C0512 >= +8105
 R0020: +2000 C0009 +2000 C0017 +1800 C0023 +1600 C0030 +1400 C0037 +1200 C0044 +1000 C0051 +800 C0058
  +4000 C0174 +3600 C0188 +3200 C0202 +2800 C0215 +2400 C0228 +1600 C0253 +1 C0497 +1 C0513 >= +8511
 R0021: +1600 C0012 +2000 C0018 +1800 C0024 +1600 C0031 +1400 C0038 +1200 C0045 +1000 C0052 +800 C0059
  +4000 C0175 +3600 C0189 +3200 C0203 +2800 C0216 +2400 C0229 +2000 C0241 +1 C0498 +1 C0514 >= +8938
 R0022: +1800 C0025 +1600 C0032 +1400 C0039 +1200 C0046 +1000 C0053 +800 C0060 +4000 C0176 +3600 C0190
  +3200 C0204 +2800 C0217 +2400 C0230 +2000 C0242 +1600 C0254 +2000 C0263 +1 C0499 +1 C0515 >= +9386
 R0023: +1600 C0033 +1400 C0040 +1200 C0047 +1000 C0054 +800 C0061 +4000 C0177 +3600 C0191 +3200 C0205
  +2800 C0218 +2400 C0231 +2000 C0243 +1600 C0255 +2000 C0264 +1800 C0272 +1 C0500 +1 C0516 >= +9857
 R0024: +1400 C0041 +1200 C0048 +1000 C0055 +800 C0062 +4000 C0178 +3600 C0192 +3200 C0206 +2800 C0219
  +2400 C0232 +2000 C0244 +1600 C0256 +2000 C0265 +1800 C0273 +1600 C0280 +1 C0501 +1 C0517 >= +10351
 R0025: +1200 C0049 +1000 C0056 +800 C0063 +4000 C0179 +3600 C0193 +3200 C0207 +2800 C0220 +2400 C0233
  +2000 C0245 +1600 C0257 +2000 C0266 +1800 C0274 +1600 C0281 +1400 C0288 +1 C0502 +1 C0518 >= +10869
 R0026: +1000 C0057 +800 C0064 +4000 C0180 +3600 C0194 +3200 C0208 +2800 C0221 +2400 C0234 +2000 C0246
  +1600 C0258 +2000 C0267 +1800 C0275 +1600 C0282 +1400 C0289 +1200 C0296 +1 C0503 +1 C0519 >= +11413
 R0027: +800 C0065 +4000 C0181 +3600 C0195 +3200 C0209 +2800 C0222 +2400 C0235 +2000 C0247 +1600 C0259
  +2000 C0268 +1800 C0276 +1600 C0283 +1400 C0290 +1200 C0297 +1000 C0304 +1 C0504 +1 C0520 >= +11985
 R0028: +4000 C0182 +3600 C0196 +3200 C0210 +2800 C0223 +2400 C0236 +2000 C0248 +1600 C0260 +2000 C0269
  +1800 C0277 +1600 C0284 +1400 C0291 +1200 C0298 +1000 C0305 +800 C0312 +1 C0505 +1 C0521 >= +12585
 R0029: +4000 C0183 +3600 C0197 +3200 C0211 +2800 C0224 +2400 C0237 +2000 C0249 +1600 C0261 +2000 C0270
  +1800 C0278 +1600 C0285 +1400 C0292 +1200 C0299 +1000 C0306 +800 C0313 +1 C0506 +1 C0522 >= +13215
 R0030: +4000 C0184 +3600 C0198 +3200 C0212 +2800 C0225 +2400 C0238 +2000 C0250 +1600 C0262 +2000 C0271
  +1800 C0279 +1600 C0286 +1400 C0293 +1200 C0300 +1000 C0307 +800 C0314 +1 C0507 +1 C0523 >= +13877
 R0031: +3600 C0001 +2800 C0003 +2000 C0007 +4000 C0170 +3200 C0199 +2400 C0226 +1600 C0251 +1 C0493 >= +4000
 R0032: +3200 C0002 +2400 C0005 +1600 C0010 +4000 C0171 +3600 C0185 +2800 C0213 +2000 C0239 +1 C0494 >= +4200
 R0033: +2800 C0004 +2000 C0008 +4000 C0172 +3600 C0186 +3200 C0200 +2400 C0227 +1600 C0252 +1 C0495 >= +4410
 R0034: +2400 C0006 +1600 C0011 +4000 C0173 +3600 C0187 +3200 C0201 +2800 C0214 +2000 C0240 +1 C0496 >= +4631
 R0035: +2000 C0009 +4000 C0174 +3600 C0188 +3200 C0202 +2800 C0215 +2400 C0228 +1600 C0253 +1 C0497 >= +4863
 R0036: +1600 C0012 +4000 C0175 +3600 C0189 +3200 C0203 +2800 C0216 +2400 C0229 +2000 C0241 +1 C0498 >= +5107
 R0037: +4000 C0176 +3600 C0190 +3200 C0204 +2800 C0217 +2400 C0230 +2000 C0242 +1600 C0254 +1 C0499 >= +5363
 R0038: +4000 C0177 +3600 C0191 +3200 C0205 +2800 C0218 +2400 C0231 +2000 C0243 +1600 C0255 +1 C0500 >= +5632
 R0039: +4000 C0178 +3600 C0192 +3200 C0206 +2800 C0219 +2400 C0232 +2000 C0244 +1600 C0256 +1 C0501 >= +5914
 R0040: +4000 C0179 +3600 C0193 +3200 C0207 +2800 C0220 +2400 C0233 +2000 C0245 +1600 C0257 +1 C0502 >= +6210
 R0041: +4000 C0180 +3600 C0194 +3200 C0208 +2800 C0221 +2400 C0234 +2000 C0246 +1600 C0258 +1 C0503 >= +6521
 R0042: +4000 C0181 +3600 C0195 +3200 C0209 +2800 C0222 +2400 C0235 +2000 C0247 +1600 C0259 +1 C0504 >= +6848
 R0043: +4000 C0182 +3600 C0196 +3200 C0210 +2800 C0223 +2400 C0236 +2000 C0248 +1600 C0260 +1 C0505 >= +7191
 R0044: +4000 C0183 +3600 C0197 +3200 C0211 +2800 C0224 +2400 C0237 +2000 C0249 +1600 C0261 +1 C0506 >= +7551
 R0045: +4000 C0184 +3600 C0198 +3200 C0212 +2800 C0225 +2400 C0238 +2000 C0250 +1600 C0262 +1 C0507 >= +7929
 R0046: +2000 C0013 +1800 C0019 +1600 C0026 +1400 C0287 +1200 C0294 +1000 C0301 +800 C0308 +1 C0509 <= +3000
 R0047: +2000 C0014 +1800 C0020 +1600 C0027 +1400 C0034 +1200 C0295 +1000 C0302 +800 C0309 +1 C0510 <= +3150
 R0048: +2000 C0015 +1800 C0021 +1600 C0028 +1400 C0035 +1200 C0042 +1000 C0303 +800 C0310 +1 C0511 <= +3308
 R0049: +2000 C0016 +1800 C0022 +1600 C0029 +1400 C0036 +1200 C0043 +1000 C0050 +800 C0311 +1 C0512 <= +3474
 R0050: +2000 C0017 +1800 C0023 +1600 C0030 +1400 C0037 +1200 C0044 +1000 C0051 +800 C0058 +1 C0513 <= +3648
 R0051: +2000 C0018 +1800 C0024 +1600 C0031 +1400 C0038 +1200 C0045 +1000 C0052 +800 C0059 +1 C0514 <= +3831
 R0052: +1800 C0025 +1600 C0032 +1400 C0039 +1200 C0046 +1000 C0053 +800 C0060 +2000 C0263 +1 C0515 <= +4023
 R0053: +1600 C0033 +1400 C0040 +1200 C0047 +1000 C0054 +800 C0061 +2000 C0264 +1800 C0272 +1 C0516 <= +4225
 R0054: +1400 C0041 +1200 C0048 +1000 C0055 +800 C0062 +2000 C0265 +1800 C0273 +1600 C0280 +1 C0517 <= +4437
 R0055: +1200 C0049 +1000 C0056 +800 C0063 +2000 C0266 +1800 C0274 +1600 C0281 +1400 C0288 +1 C0518 <= +4659
 R0056: +1000 C0057 +800 C0064 +2000 C0267 +1800 C0275 +1600 C0282 +1400 C0289 +1200 C0296 +1 C0519 <= +4892
 R0057: +800 C0065 +2000 C0268 +1800 C0276 +1600 C0283 +1400 C0290 +1200 C0297 +1000 C0304 +1 C0520 <= +5137
 R0058: +2000 C0269 +1800 C0277 +1600 C0284 +1400 C0291 +1200 C0298 +1000 C0305 +800 C0312 +1 C0521 <= +5394
 R0059: +2000 C0270 +1800 C0278 +1600 C0285 +1400 C0292 +1200 C0299 +1000 C0306 +800 C0313 +1 C0522 <= +5664
 R0060: +2000 C0271 +1800 C0279 +1600 C0286 +1400 C0293 +1200 C0300 +1000 C0307 +800 C0314 +1 C0523 <= +5948
 R0061: +1 C0001 +1 C0066 = +1
 R0062: +1 C0199 +1 C0330 = +2
 R0063: +1 C0003 +1 C0068 = +1
 R0064: +1 C0226 +1 C0359 = +2
 R0065: +1 C0007 +1 C0072 = +1
 R0066: +1 C0251 +1 C0386 = +2
 R0067: +1 C0019 +1 C0411 = +2
 R0068: +1 C0026 +1 C0421 = +3
 R0069: +1 C0287 +1 C0430 = +4
 R0070: +1 C0294 +1 C0438 = +2
 R0071: +1 C0301 +1 C0446 = +3
 R0072: +1 C0308 +1 C0454 = +4
 R0073: +1 C0170 -1 C0185 -1 C0315 = +0
 R0074: +1 C0171 -1 C0186 -1 C0316 = +0
 R0075: +1 C0172 -1 C0187 -1 C0317 = +0
 R0076: +1 C0173 -1 C0188 -1 C0318 = +0
 R0077: +1 C0174 -1 C0189 -1 C0319 = +0
 R0078: +1 C0175 -1 C0190 -1 C0320 = +0
 R0079: +1 C0176 -1 C0191 -1 C0321 = +0
 R0080: +1 C0177 -1 C0192 -1 C0322 = +0
 R0081: +1 C0178 -1 C0193 -1 C0323 = +0
 R0082: +1 C0179 -1 C0194 -1 C0324 = +0
 R0083: +1 C0180 -1 C0195 -1 C0325 = +0
 R0084: +1 C0181 -1 C0196 -1 C0326 = +0
 R0085: +1 C0182 -1 C0197 -1 C0327 = +0
 R0086: +1 C0183 -1 C0198 -1 C0328 = +0
 R0087: +1 C0001 -1 C0002 -1 C0067 = +0
 R0088: +1 C0185 -1 C0200 -1 C0331 = +0
 R0089: +1 C0186 -1 C0201 -1 C0332 = +0
 R0090: +1 C0187 -1 C0202 -1 C0333 = +0
 R0091: +1 C0188 -1 C0203 -1 C0334 = +0
 R0092: +1 C0189 -1 C0204 -1 C0335 = +0
 R0093: +1 C0190 -1 C0205 -1 C0336 = +0
 R0094: +1 C0191 -1 C0206 -1 C0337 = +0
 R0095: +1 C0192 -1 C0207 -1 C0338 = +0
 R0096: +1 C0193 -1 C0208 -1 C0339 = +0
 R0097: +1 C0194 -1 C0209 -1 C0340 = +0
 R0098: +1 C0195 -1 C0210 -1 C0341 = +0
 R0099: +1 C0196 -1 C0211 -1 C0342 = +0
 R0100: +1 C0197 -1 C0212 -1 C0343 = +0
 R0101: +1 C0199 -1 C0213 -1 C0345 = +0
 R0102: +1 C0002 -1 C0004 -1 C0069 = +0
 R0103: +1 C0200 -1 C0214 -1 C0346 = +0
 R0104: +1 C0201 -1 C0215 -1 C0347 = +0
 R0105: +1 C0202 -1 C0216 -1 C0348 = +0
 R0106: +1 C0203 -1 C0217 -1 C0349 = +0
 R0107: +1 C0204 -1 C0218 -1 C0350 = +0
 R0108: +1 C0205 -1 C0219 -1 C0351 = +0
 R0109: +1 C0206 -1 C0220 -1 C0352 = +0
 R0110: +1 C0207 -1 C0221 -1 C0353 = +0
 R0111: +1 C0208 -1 C0222 -1 C0354 = +0
 R0112: +1 C0209 -1 C0223 -1 C0355 = +0
 R0113: +1 C0210 -1 C0224 -1 C0356 = +0
 R0114: +1 C0211 -1 C0225 -1 C0357 = +0
 R0115: +1 C0003 -1 C0005 -1 C0070 = +0
 R0116: +1 C0213 -1 C0227 -1 C0360 = +0
 R0117: +1 C0004 -1 C0006 -1 C0071 = +0
 R0118: +1 C0214 -1 C0228 -1 C0361 = +0
 R0119: +1 C0215 -1 C0229 -1 C0362 = +0
 R0120: +1 C0216 -1 C0230 -1 C0363 = +0
 R0121: +1 C0217 -1 C0231 -1 C0364 = +0
 R0122: +1 C0218 -1 C0232 -1 C0365 = +0
 R0123: +1 C0219 -1 C0233 -1 C0366 = +0
 R0124: +1 C0220 -1 C0234 -1 C0367 = +0
 R0125: +1 C0221 -1 C0235 -1 C0368 = +0
 R0126: +1 C0222 -1 C0236 -1 C0369 = +0
 R0127: +1 C0223 -1 C0237 -1 C0370 = +0
 R0128: +1 C0224 -1 C0238 -1 C0371 = +0
 R0129: +1 C0226 -1 C0239 -1 C0373 = +0
 R0130: +1 C0005 -1 C0008 -1 C0073 = +0
 R0131: +1 C0227 -1 C0240 -1 C0374 = +0
 R0132: +1 C0006 -1 C0009 -1 C0074 = +0
 R0133: +1 C0228 -1 C0241 -1 C0375 = +0
 R0134: +1 C0229 -1 C0242 -1 C0376 = +0
 R0135: +1 C0230 -1 C0243 -1 C0377 = +0
 R0136: +1 C0231 -1 C0244 -1 C0378 = +0
 R0137: +1 C0232 -1 C0245 -1 C0379 = +0
 R0138: +1 C0233 -1 C0246 -1 C0380 = +0
 R0139: +1 C0234 -1 C0247 -1 C0381 = +0
 R0140: +1 C0235 -1 C0248 -1 C0382 = +0
 R0141: +1 C0236 -1 C0249 -1 C0383 = +0
 R0142: +1 C0237 -1 C0250 -1 C0384 = +0
 R0143: +1 C0007 -1 C0010 -1 C0075 = +0
 R0144: +1 C0239 -1 C0252 -1 C0387 = +0
 R0145: +1 C0008 -1 C0011 -1 C0076 = +0
 R0146: +1 C0240 -1 C0253 -1 C0388 = +0
 R0147: +1 C0009 -1 C0012 -1 C0077 = +0
 R0148: +1 C0241 -1 C0254 -1 C0389 = +0
 R0149: +1 C0242 -1 C0255 -1 C0390 = +0
 R0150: +1 C0243 -1 C0256 -1 C0391 = +0
 R0151: +1 C0244 -1 C0257 -1 C0392 = +0
 R0152: +1 C0245 -1 C0258 -1 C0393 = +0
 R0153: +1 C0246 -1 C0259 -1 C0394 = +0
 R0154: +1 C0247 -1 C0260 -1 C0395 = +0
 R0155: +1 C0248 -1 C0261 -1 C0396 = +0
 R0156: +1 C0249 -1 C0262 -1 C0397 = +0
 R0157: +1 C0013 -1 C0020 -1 C0081 = +0
 R0158: +1 C0014 -1 C0021 -1 C0082 = +0
 R0159: +1 C0015 -1 C0022 -1 C0083 = +0
 R0160: +1 C0016 -1 C0023 -1 C0084 = +0
 R0161: +1 C0017 -1 C0024 -1 C0085 = +0
 R0162: +1 C0018 -1 C0025 -1 C0086 = +0
 R0163: +1 C0263 -1 C0272 -1 C0412 = +0
 R0164: +1 C0264 -1 C0273 -1 C0413 = +0
 R0165: +1 C0265 -1 C0274 -1 C0414 = +0
 R0166: +1 C0266 -1 C0275 -1 C0415 = +0
 R0167: +1 C0267 -1 C0276 -1 C0416 = +0
 R0168: +1 C0268 -1 C0277 -1 C0417 = +0
 R0169: +1 C0269 -1 C0278 -1 C0418 = +0
 R0170: +1 C0270 -1 C0279 -1 C0419 = +0
 R0171: +1 C0019 -1 C0027 -1 C0087 = +0
 R0172: +1 C0020 -1 C0028 -1 C0088 = +0
 R0173: +1 C0021 -1 C0029 -1 C0089 = +0
 R0174: +1 C0022 -1 C0030 -1 C0090 = +0
 R0175: +1 C0023 -1 C0031 -1 C0091 = +0
 R0176: +1 C0024 -1 C0032 -1 C0092 = +0
 R0177: +1 C0025 -1 C0033 -1 C0093 = +0
 R0178: +1 C0272 -1 C0280 -1 C0422 = +0
 R0179: +1 C0273 -1 C0281 -1 C0423 = +0
 R0180: +1 C0274 -1 C0282 -1 C0424 = +0
 R0181: +1 C0275 -1 C0283 -1 C0425 = +0
 R0182: +1 C0276 -1 C0284 -1 C0426 = +0
 R0183: +1 C0277 -1 C0285 -1 C0427 = +0
 R0184: +1 C0278 -1 C0286 -1 C0428 = +0
 R0185: +1 C0026 -1 C0034 -1 C0094 = +0
 R0186: +1 C0027 -1 C0035 -1 C0095 = +0
 R0187: +1 C0028 -1 C0036 -1 C0096 = +0
 R0188: +1 C0029 -1 C0037 -1 C0097 = +0
 R0189: +1 C0030 -1 C0038 -1 C0098 = +0
 R0190: +1 C0031 -1 C0039 -1 C0099 = +0
 R0191: +1 C0032 -1 C0040 -1 C0100 = +0
 R0192: +1 C0033 -1 C0041 -1 C0101 = +0
 R0193: +1 C0280 -1 C0288 -1 C0431 = +0
 R0194: +1 C0281 -1 C0289 -1 C0432 = +0
 R0195: +1 C0282 -1 C0290 -1 C0433 = +0
 R0196: +1 C0283 -1 C0291 -1 C0434 = +0
 R0197: +1 C0284 -1 C0292 -1 C0435 = +0
 R0198: +1 C0285 -1 C0293 -1 C0436 = +0
 R0199: +1 C0287 -1 C0295 -1 C0439 = +0
 R0200: +1 C0034 -1 C0042 -1 C0102 = +0
 R0201: +1 C0035 -1 C0043 -1 C0103 = +0
 R0202: +1 C0036 -1 C0044 -1 C0104 = +0
 R0203: +1 C0037 -1 C0045 -1 C0105 = +0
 R0204: +1 C0038 -1 C0046 -1 C0106 = +0
 R0205: +1 C0039 -1 C0047 -1 C0107 = +0
 R0206: +1 C0040 -1 C0048 -1 C0108 = +0
 R0207: +1 C0041 -1 C0049 -1 C0109 = +0
 R0208: +1 C0288 -1 C0296 -1 C0440 = +0
 R0209: +1 C0289 -1 C0297 -1 C0441 = +0
 R0210: +1 C0290 -1 C0298 -1 C0442 = +0
 R0211: +1 C0291 -1 C0299 -1 C0443 = +0
 R0212: +1 C0292 -1 C0300 -1 C0444 = +0
 R0213: +1 C0294 -1 C0302 -1 C0447 = +0
 R0214: +1 C0295 -1 C0303 -1 C0448 = +0
 R0215: +1 C0042 -1 C0050 -1 C0110 = +0
 R0216: +1 C0043 -1 C0051 -1 C0111 = +0
 R0217: +1 C0044 -1 C0052 -1 C0112 = +0
 R0218: +1 C0045 -1 C0053 -1 C0113 = +0
 R0219: +1 C0046 -1 C0054 -1 C0114 = +0
 R0220: +1 C0047 -1 C0055 -1 C0115 = +0
 R0221: +1 C0048 -1 C0056 -1 C0116 = +0
 R0222: +1 C0049 -1 C0057 -1 C0117 = +0
 R0223: +1 C0296 -1 C0304 -1 C0449 = +0
 R0224: +1 C0297 -1 C0305 -1 C0450 = +0
 R0225: +1 C0298 -1 C0306 -1 C0451 = +0
 R0226: +1 C0299 -1 C0307 -1 C0452 = +0
 R0227: +1 C0301 -1 C0309 -1 C0455 = +0
 R0228: +1 C0302 -1 C0310 -1 C0456 = +0
 R0229: +1 C0303 -1 C0311 -1 C0457 = +0
 R0230: +1 C0050 -1 C0058 -1 C0118 = +0
 R0231: +1 C0051 -1 C0059 -1 C0119 = +0
 R0232: +1 C0052 -1 C0060 -1 C0120 = +0
 R0233: +1 C0053 -1 C0061 -1 C0121 = +0
 R0234: +1 C0054 -1 C0062 -1 C0122 = +0
 R0235: +1 C0055 -1 C0063 -1 C0123 = +0
 R0236: +1 C0056 -1 C0064 -1 C0124 = +0
 R0237: +1 C0057 -1 C0065 -1 C0125 = +0
 R0238: +1 C0304 -1 C0312 -1 C0458 = +0
 R0239: +1 C0305 -1 C0313 -1 C0459 = +0
 R0240: +1 C0306 -1 C0314 -1 C0460 = +0
 R0241: +1 C0251 -1 C0399 = +0
 R0242: +1 C0010 -1 C0078 = +0
 R0243: +1 C0252 -1 C0400 = +0
 R0244: +1 C0011 -1 C0079 = +0
 R0245: +1 C0253 -1 C0401 = +0
 R0246: +1 C0012 -1 C0080 = +0
 R0247: +1 C0254 -1 C0402 = +0
 R0248: +1 C0255 -1 C0403 = +0
 R0249: +1 C0256 -1 C0404 = +0
 R0250: +1 C0257 -1 C0405 = +0
 R0251: +1 C0258 -1 C0406 = +0
 R0252: +1 C0259 -1 C0407 = +0
 R0253: +1 C0260 -1 C0408 = +0
 R0254: +1 C0261 -1 C0409 = +0
 R0255: +1 C0262 -1 C0410 = +0
 R0256: +1 C0308 -1 C0462 = +0
 R0257: +1 C0309 -1 C0463 = +0
 R0258: +1 C0310 -1 C0464 = +0
 R0259: +1 C0311 -1 C0465 = +0
 R0260: +1 C0058 -1 C0126 = +0
 R0261: +1 C0059 -1 C0127 = +0
 R0262: +1 C0060 -1 C0128 = +0
 R0263: +1 C0061 -1 C0129 = +0
 R0264: +1 C0062 -1 C0130 = +0
 R0265: +1 C0063 -1 C0131 = +0
 R0266: +1 C0064 -1 C0132 = +0
 R0267: +1 C0065 -1 C0133 = +0
 R0268: +1 C0312 -1 C0466 = +0
 R0269: +1 C0313 -1 C0467 = +0
 R0270: +1 C0314 -1 C0468 = +0
 R0271: +1 C0170 -1 C0469 = +0
 R0272: +1 C0171 -1 C0470 = +0
 R0273: +1 C0172 -1 C0471 = +0
 R0274: +1 C0173 -1 C0472 = +0
 R0275: +1 C0174 -1 C0473 = +0
 R0276: +1 C0175 -1 C0474 = +0
 R0277: +1 C0176 -1 C0475 = +0
 R0278: +1 C0177 -1 C0476 = +0
 R0279: +1 C0178 -1 C0477 = +0
 R0280: +1 C0179 -1 C0478 = +0
 R0281: +1 C0180 -1 C0479 = +0
 R0282: +1 C0181 -1 C0480 = +0
 R0283: +1 C0182 -1 C0481 = +0
 R0284: +1 C0183 -1 C0482 = +0
 R0285: +1 C0184 -1 C0483 = +0
 R0286: +1 C0013 -1 C0134 = +0
 R0287: +1 C0014 -1 C0135 = +0
 R0288: +1 C0015 -1 C0136 = +0
 R0289: +1 C0016 -1 C0137 = +0
 R0290: +1 C0017 -1 C0138 = +0
 R0291: +1 C0018 -1 C0139 = +0
 R0292: +1 C0263 -1 C0484 = +0
 R0293: +1 C0264 -1 C0485 = +0
 R0294: +1 C0265 -1 C0486 = +0
 R0295: +1 C0266 -1 C0487 = +0
 R0296: +1 C0267 -1 C0488 = +0
 R0297: +1 C0268 -1 C0489 = +0
 R0298: +1 C0269 -1 C0490 = +0
 R0299: +1 C0270 -1 C0491 = +0
 R0300: +1 C0271 -1 C0492 = +0
 R0301: -48574 C0141 +4000 C0470 <= +0
 R0302: -48574 C0142 +4000 C0471 <= +0
 R0303: -48574 C0143 +4000 C0472 <= +0
 R0304: -48574 C0144 +4000 C0473 <= +0
 R0305: -48574 C0145 +4000 C0474 <= +0
 R0306: -48574 C0146 +4000 C0475 <= +0
 R0307: -48574 C0147 +4000 C0476 <= +0
 R0308: -48574 C0148 +4000 C0477 <= +0
 R0309: -48574 C0149 +4000 C0478 <= +0
 R0310: -48574 C0150 +4000 C0479 <= +0
 R0311: -48574 C0151 +4000 C0480 <= +0
 R0312: -48574 C0152 +4000 C0481 <= +0
 R0313: -48574 C0153 +4000 C0482 <= +0
 R0314: -48574 C0154 +4000 C0483 <= +0
 R0315: +2000 C0135 -27754 C0156 <= +0
 R0316: +2000 C0136 -27754 C0157 <= +0
 R0317: +2000 C0137 -27754 C0158 <= +0
 R0318: +2000 C0138 -27754 C0159 <= +0
 R0319: +2000 C0139 -27754 C0160 <= +0
 R0320: -27754 C0161 +2000 C0484 <= +0
 R0321: -27754 C0162 +2000 C0485 <= +0
 R0322: -27754 C0163 +2000 C0486 <= +0
 R0323: -27754 C0164 +2000 C0487 <= +0
 R0324: -27754 C0165 +2000 C0488 <= +0
 R0325: -27754 C0166 +2000 C0489 <= +0
 R0326: -27754 C0167 +2000 C0490 <= +0
 R0327: -27754 C0168 +2000 C0491 <= +0
 R0328: -27754 C0169 +2000 C0492 <= +0
 R0329: +1 C0184 -1 C0329 = +0
 R0330: +1 C0198 -1 C0344 = +0
 R0331: +1 C0212 -1 C0358 = +0
 R0332: +1 C0225 -1 C0372 = +0
 R0333: +1 C0238 -1 C0385 = +0
 R0334: +1 C0250 -1 C0398 = +0
 R0335: +1 C0262 -1 C0410 = +0
 R0336: +1 C0271 -1 C0420 = +0
 R0337: +1 C0279 -1 C0429 = +0
 R0338: +1 C0286 -1 C0437 = +0
 R0339: +1 C0293 -1 C0445 = +0
 R0340: +1 C0300 -1 C0453 = +0
 R0341: +1 C0307 -1 C0461 = +0
 R0342: +1 C0314 -1 C0468 = +0
Bounds
 0 <= C0524 <= 1
 0 <= C0001 <= 1
 0 <= C0002 <= 1
 0 <= C0003 <= 1
 0 <= C0004 <= 1
 0 <= C0005 <= 1
 0 <= C0006 <= 1
 0 <= C0007 <= 1
 0 <= C0008 <= 1
 0 <= C0009 <= 1
 0 <= C0010 <= 1
 0 <= C0011 <= 1
 0 <= C0012 <= 1
 0 <= C0013 <= 1
 0 <= C0014 <= 1
 0 <= C0015 <= 1
 0 <= C0016 <= 1
 0 <= C0017 <= 1
 0 <= C0018 <= 1
 0 <= C0019 <= 1
 0 <= C0020 <= 1
 0 <= C0021 <= 1
 0 <= C0022 <= 1
 0 <= C0023 <= 1
 0 <= C0024 <= 1
 0 <= C0025 <= 1
 0 <= C0026 <= 1
 0 <= C0027 <= 1
 0 <= C0028 <= 1
 0 <= C0029 <= 1
 0 <= C0030 <= 1
 0 <= C0031 <= 1
 0 <= C0032 <= 1
 0 <= C0033 <= 1
 0 <= C0034 <= 1
 0 <= C0035 <= 1
 0 <= C0036 <= 1
 0 <= C0037 <= 1
 0 <= C0038 <= 1
 0 <= C0039 <= 1
 0 <= C0040 <= 1
 0 <= C0041 <= 1
 0 <= C0042 <= 1
 0 <= C0043 <= 1
 0 <= C0044 <= 1
 0 <= C0045 <= 1
 0 <= C0046 <= 1
 0 <= C0047 <= 1
 0 <= C0048 <= 1
 0 <= C0049 <= 1
 0 <= C0050 <= 1
 0 <= C0051 <= 1
 0 <= C0052 <= 1
 0 <= C0053 <= 1
 0 <= C0054 <= 1
 0 <= C0055 <= 1
 0 <= C0056 <= 1
 0 <= C0057 <= 1
 0 <= C0058 <= 1
 0 <= C0059 <= 1
 0 <= C0060 <= 1
 0 <= C0061 <= 1
 0 <= C0062 <= 1
 0 <= C0063 <= 1
 0 <= C0064 <= 1
 0 <= C0065 <= 1
 0 <= C0066 <= 1
 0 <= C0067 <= 1
 0 <= C0068 <= 1
 0 <= C0069 <= 1
 0 <= C0070 <= 1
 0 <= C0071 <= 1
 0 <= C0072 <= 1
 0 <= C0073 <= 1
 0 <= C0074 <= 1
 0 <= C0075 <= 1
 0 <= C0076 <= 1
 0 <= C0077 <= 1
 0 <= C0078 <= 1
 0 <= C0079 <= 1
 0 <= C0080 <= 1
 0 <= C0081 <= 1
 0 <= C0082 <= 1
 0 <= C0083 <= 1
 0 <= C0084 <= 1
 0 <= C0085 <= 1
 0 <= C0086 <= 1
 0 <= C0087 <= 1
 0 <= C0088 <= 1
 0 <= C0089 <= 1
 0 <= C0090 <= 1
 0 <= C0091 <= 1
 0 <= C0092 <= 1
 0 <= C0093 <= 1
 0 <= C0094 <= 1
 0 <= C0095 <= 1
 0 <= C0096 <= 1
 0 <= C0097 <= 1
 0 <= C0098 <= 1
 0 <= C0099 <= 1
 0 <= C0100 <= 1
 0 <= C0101 <= 1
 0 <= C0102 <= 1
 0 <= C0103 <= 1
 0 <= C0104 <= 1
 0 <= C0105 <= 1
 0 <= C0106 <= 1
 0 <= C0107 <= 1
 0 <= C0108 <= 1
 0 <= C0109 <= 1
 0 <= C0110 <= 1
 0 <= C0111 <= 1
 0 <= C0112 <= 1
 0 <= C0113 <= 1
 0 <= C0114 <= 1
 0 <= C0115 <= 1
 0 <= C0116 <= 1
 0 <= C0117 <= 1
 0 <= C0118 <= 1
 0 <= C0119 <= 1
 0 <= C0120 <= 1
 0 <= C0121 <= 1
 0 <= C0122 <= 1
 0 <= C0123 <= 1
 0 <= C0124 <= 1
 0 <= C0125 <= 1
 0 <= C0126 <= 1
 0 <= C0127 <= 1
 0 <= C0128 <= 1
 0 <= C0129 <= 1
 0 <= C0130 <= 1
 0 <= C0131 <= 1
 0 <= C0132 <= 1
 0 <= C0133 <= 1
 0 <= C0134 <= 1
 0 <= C0135 <= 1
 0 <= C0136 <= 1
 0 <= C0137 <= 1
 0 <= C0138 <= 1
 0 <= C0139 <= 1
 0 <= C0140 <= 1
 0 <= C0141 <= 1
 0 <= C0142 <= 1
 0 <= C0143 <= 1
 0 <= C0144 <= 1
 0 <= C0145 <= 1
 0 <= C0146 <= 1
 0 <= C0147 <= 1
 0 <= C0148 <= 1
 0 <= C0149 <= 1
 0 <= C0150 <= 1
 0 <= C0151 <= 1
 0 <= C0152 <= 1
 0 <= C0153 <= 1
 0 <= C0154 <= 1
 0 <= C0155 <= 1
 0 <= C0156 <= 1
 0 <= C0157 <= 1
 0 <= C0158 <= 1
 0 <= C0159 <= 1
 0 <= C0160 <= 1
 0 <= C0161 <= 1
 0 <= C0162 <= 1
 0 <= C0163 <= 1
 0 <= C0164 <= 1
 0 <= C0165 <= 1
 0 <= C0166 <= 1
 0 <= C0167 <= 1
 0 <= C0168 <= 1
 0 <= C0169 <= 1
 0 <= C0507 <= 1
 0 <= C0506 <= 1
 0 <= C0505 <= 1
 0 <= C0504 <= 1
 0 <= C0503 <= 1
 0 <= C0502 <= 1
 0 <= C0501 <= 1
 0 <= C0500 <= 1
 0 <= C0499 <= 1
 0 <= C0498 <= 1
 0 <= C0497 <= 1
 0 <= C0496 <= 1
 0 <= C0495 <= 1
 0 <= C0494 <= 1
 0 <= C0493 <= 1
 0 <= C0508 <= 1
 0 <= C0522 <= 5664
 0 <= C0521 <= 5394
 0 <= C0520 <= 5137
 0 <= C0519 <= 4892
 0 <= C0518 <= 4659
 0 <= C0517 <= 4437
 0 <= C0516 <= 4225
 0 <= C0515 <= 4023
 0 <= C0514 <= 3831
 0 <= C0513 <= 3648
 0 <= C0512 <= 3474
 0 <= C0511 <= 3308
 0 <= C0510 <= 3150
 0 <= C0509 <= 3000
 0 <= C0492 <= 2
 0 <= C0491 <= 2
 0 <= C0490 <= 2
 0 <= C0489 <= 2
 0 <= C0488 <= 2
 0 <= C0487 <= 2
 0 <= C0486 <= 2
 0 <= C0485 <= 2
 0 <= C0484 <= 2
 0 <= C0483 <= 12
 0 <= C0482 <= 12
 0 <= C0481 <= 12
 0 <= C0480 <= 12
 0 <= C0479 <= 12
 0 <= C0478 <= 12
 0 <= C0477 <= 12
 0 <= C0476 <= 12
 0 <= C0475 <= 12
 0 <= C0474 <= 12
 0 <= C0473 <= 12
 0 <= C0472 <= 12
 0 <= C0471 <= 12
 0 <= C0470 <= 12
 0 <= C0469 <= 10
 0 <= C0468 <= 2
 0 <= C0467 <= 2
 0 <= C0466 <= 2
 0 <= C0465 <= 2
 0 <= C0464 <= 2
 0 <= C0463 <= 3
 0 <= C0462 <= 3
 0 <= C0461 <= 2
 0 <= C0460 <= 2
 0 <= C0459 <= 2
 0 <= C0458 <= 2
 0 <= C0457 <= 2
 0 <= C0456 <= 2
 0 <= C0455 <= 3
 1 <= C0454 <= 4
 0 <= C0453 <= 2
 0 <= C0452 <= 2
 0 <= C0451 <= 2
 0 <= C0450 <= 2
 0 <= C0449 <= 2
 0 <= C0448 <= 2
 0 <= C0447 <= 2
 0 <= C0446 <= 3
 0 <= C0445 <= 2
 0 <= C0444 <= 2
 0 <= C0443 <= 2
 0 <= C0442 <= 2
 0 <= C0441 <= 2
 0 <= C0440 <= 2
 0 <= C0439 <= 2
 0 <= C0438 <= 2
 0 <= C0437 <= 2
 0 <= C0436 <= 2
 0 <= C0435 <= 2
 0 <= C0434 <= 2
 0 <= C0433 <= 2
 0 <= C0432 <= 2
 0 <= C0431 <= 2
 2 <= C0430 <= 4
 0 <= C0429 <= 2
 0 <= C0428 <= 2
 0 <= C0427 <= 2
 0 <= C0426 <= 2
 0 <= C0425 <= 2
 0 <= C0424 <= 2
 0 <= C0423 <= 2
 0 <= C0422 <= 2
 2 <= C0421 <= 3
 0 <= C0420 <= 2
 0 <= C0419 <= 2
 0 <= C0418 <= 2
 0 <= C0417 <= 2
 0 <= C0416 <= 2
 0 <= C0415 <= 2
 0 <= C0414 <= 2
 0 <= C0413 <= 2
 0 <= C0412 <= 2
 1 <= C0411 <= 2
 0 <= C0410 <= 12
 0 <= C0409 <= 12
 0 <= C0408 <= 12
 0 <= C0407 <= 12
 0 <= C0406 <= 12
 0 <= C0405 <= 12
 0 <= C0404 <= 12
 0 <= C0403 <= 12
 0 <= C0402 <= 10
 0 <= C0401 <= 2
 0 <= C0400 <= 2
 0 <= C0399 <= 2
 0 <= C0398 <= 12
 0 <= C0397 <= 12
 0 <= C0396 <= 12
 0 <= C0395 <= 12
 0 <= C0394 <= 12
 0 <= C0393 <= 12
 0 <= C0392 <= 12
 0 <= C0391 <= 12
 0 <= C0390 <= 12
 0 <= C0389 <= 10
 0 <= C0388 <= 2
 0 <= C0387 <= 2
 0 <= C0386 <= 2
 0 <= C0385 <= 12
 0 <= C0384 <= 12
 0 <= C0383 <= 12
 0 <= C0382 <= 12
 0 <= C0381 <= 12
 0 <= C0380 <= 12
 0 <= C0379 <= 12
 0 <= C0378 <= 12
 0 <= C0377 <= 12
 0 <= C0376 <= 12
 0 <= C0375 <= 10
 0 <= C0374 <= 2
 0 <= C0373 <= 2
 0 <= C0372 <= 12
 0 <= C0371 <= 12
 0 <= C0370 <= 12
 0 <= C0369 <= 12
 0 <= C0368 <= 12
 0 <= C0367 <= 12
 0 <= C0366 <= 12
 0 <= C0365 <= 12
 0 <= C0364 <= 12
 0 <= C0363 <= 12
 0 <= C0362 <= 12
 0 <= C0361 <= 10
 0 <= C0360 <= 2
 0 <= C0359 <= 2
 0 <= C0358 <= 12
 0 <= C0357 <= 12
 0 <= C0356 <= 12
 0 <= C0355 <= 12
 0 <= C0354 <= 12
 0 <= C0353 <= 12
 0 <= C0352 <= 12
 0 <= C0351 <= 12
 0 <= C0350 <= 12
 0 <= C0349 <= 12
 0 <= C0348 <= 12
 0 <= C0347 <= 12
 0 <= C0346 <= 10
 0 <= C0345 <= 2
 0 <= C0344 <= 12
 0 <= C0343 <= 12
 0 <= C0342 <= 12
 0 <= C0341 <= 12
 0 <= C0340 <= 12
 0 <= C0339 <= 12
 0 <= C0338 <= 12
 0 <= C0337 <= 12
 0 <= C0336 <= 12
 0 <= C0335 <= 12
 0 <= C0334 <= 12
 0 <= C0333 <= 12
 0 <= C0332 <= 12
 0 <= C0331 <= 10
 0 <= C0330 <= 2
 0 <= C0329 <= 12
 0 <= C0328 <= 12
 0 <= C0327 <= 12
 0 <= C0326 <= 12
 0 <= C0325 <= 12
 0 <= C0324 <= 12
 0 <= C0323 <= 12
 0 <= C0322 <= 12
 0 <= C0321 <= 12
 0 <= C0320 <= 12
 0 <= C0319 <= 12
 0 <= C0318 <= 12
 0 <= C0317 <= 12
 0 <= C0316 <= 12
 0 <= C0315 <= 10
 0 <= C0314 <= 2
 0 <= C0313 <= 2
 0 <= C0312 <= 2
 0 <= C0311 <= 2
 0 <= C0310 <= 2
 0 <= C0309 <= 3
 0 <= C0308 <= 3
 0 <= C0307 <= 2
 0 <= C0306 <= 2
 0 <= C0305 <= 2
 0 <= C0304 <= 2
 0 <= C0303 <= 2
 0 <= C0302 <= 2
 0 <= C0301 <= 3
 0 <= C0300 <= 2
 0 <= C0299 <= 2
 0 <= C0298 <= 2
 0 <= C0297 <= 2
 0 <= C0296 <= 2
 0 <= C0295 <= 2
 0 <= C0294 <= 2
 0 <= C0293 <= 2
 0 <= C0292 <= 2
 0 <= C0291 <= 2
 0 <= C0290 <= 2
 0 <= C0289 <= 2
 0 <= C0288 <= 2
 0 <= C0287 <= 2
 0 <= C0286 <= 2
 0 <= C0285 <= 2
 0 <= C0284 <= 2
 0 <= C0283 <= 2
 0 <= C0282 <= 2
 0 <= C0281 <= 2
 0 <= C0280 <= 2
 0 <= C0279 <= 2
 0 <= C0278 <= 2
 0 <= C0277 <= 2
 0 <= C0276 <= 2
 0 <= C0275 <= 2
 0 <= C0274 <= 2
 0 <= C0273 <= 2
 0 <= C0272 <= 2
 0 <= C0271 <= 2
 0 <= C0270 <= 2
 0 <= C0269 <= 2
 0 <= C0268 <= 2
 0 <= C0267 <= 2
 0 <= C0266 <= 2
 0 <= C0265 <= 2
 0 <= C0264 <= 2
 0 <= C0263 <= 2
 0 <= C0262 <= 12
 0 <= C0261 <= 12
 0 <= C0260 <= 12
 0 <= C0259 <= 12
 0 <= C0258 <= 12
 0 <= C0257 <= 12
 0 <= C0256 <= 12
 0 <= C0255 <= 12
 0 <= C0254 <= 10
 0 <= C0253 <= 2
 0 <= C0252 <= 2
 0 <= C0251 <= 2
 0 <= C0250 <= 12
 0 <= C0249 <= 12
 0 <= C0248 <= 12
 0 <= C0247 <= 12
 0 <= C0246 <= 12
 0 <= C0245 <= 12
 0 <= C0244 <= 12
 0 <= C0243 <= 12
 0 <= C0242 <= 12
 0 <= C0241 <= 10
 0 <= C0240 <= 2
 0 <= C0239 <= 2
 0 <= C0238 <= 12
 0 <= C0237 <= 12
 0 <= C0236 <= 12
 0 <= C0235 <= 12
 0 <= C0234 <= 12
 0 <= C0233 <= 12
 0 <= C0232 <= 12
 0 <= C0231 <= 12
 0 <= C0230 <= 12
 0 <= C0229 <= 12
 0 <= C0228 <= 10
 0 <= C0227 <= 2
 0 <= C0226 <= 2
 0 <= C0225 <= 12
 0 <= C0224 <= 12
 0 <= C0223 <= 12
 0 <= C0222 <= 12
 0 <= C0221 <= 12
 0 <= C0220 <= 12
 0 <= C0219 <= 12
 0 <= C0218 <= 12
 0 <= C0217 <= 12
 0 <= C0216 <= 12
 0 <= C0215 <= 12
 0 <= C0214 <= 10
 0 <= C0213 <= 2
 0 <= C0212 <= 12
 0 <= C0211 <= 12
 0 <= C0210 <= 12
 0 <= C0209 <= 12
 0 <= C0208 <= 12
 0 <= C0207 <= 12
 0 <= C0206 <= 12
 0 <= C0205 <= 12
 0 <= C0204 <= 12
 0 <= C0203 <= 12
 0 <= C0202 <= 12
 0 <= C0201 <= 12
 0 <= C0200 <= 10
 0 <= C0199 <= 2
 0 <= C0198 <= 12
 0 <= C0197 <= 12
 0 <= C0196 <= 12
 0 <= C0195 <= 12
 0 <= C0194 <= 12
 0 <= C0193 <= 12
 0 <= C0192 <= 12
 0 <= C0191 <= 12
 0 <= C0190 <= 12
 0 <= C0189 <= 12
 0 <= C0188 <= 12
 0 <= C0187 <= 12
 0 <= C0186 <= 12
 0 <= C0185 <= 10
 0 <= C0184 <= 12
 0 <= C0183 <= 12
 0 <= C0182 <= 12
 0 <= C0181 <= 12
 0 <= C0180 <= 12
 0 <= C0179 <= 12
 0 <= C0178 <= 12
 0 <= C0177 <= 12
 0 <= C0176 <= 12
 0 <= C0175 <= 12
 0 <= C0174 <= 12
 0 <= C0173 <= 12
 0 <= C0172 <= 12
 0 <= C0171 <= 12
 0 <= C0170 <= 10
 0 <= C0523 <= 5948
Binaries
 C0524 C0001 C0002 C0003 C0004 C0005 C0006 C0007 C0008 C0009 C0010 C0011 C0012 C0013 C0014 C0015 C0016
 C0017 C0018 C0019 C0020 C0021 C0022 C0023 C0024 C0025 C0026 C0027 C0028 C0029 C0030 C0031 C0032 C0033
 C0034 C0035 C0036 C0037 C0038 C0039 C0040 C0041 C0042 C0043 C0044 C0045 C0046 C0047 C0048 C0049 C0050
 C0051 C0052 C0053 C0054 C0055 C0056 C0057 C0058 C0059 C0060 C0061 C0062 C0063 C0064 C0065 C0066 C0067
 C0068 C0069 C0070 C0071 C0072 C0073 C0074 C0075 C0076 C0077 C0078 C0079 C0080 C0081 C0082 C0083 C0084
 C0085 C0086 C0087 C0088 C0089 C0090 C0091 C0092 C0093 C0094 C0095 C0096 C0097 C0098 C0099 C0100 C0101
 C0102 C0103 C0104 C0105 C0106 C0107 C0108 C0109 C0110 C0111 C0112 C0113 C0114 C0115 C0116 C0117 C0118
 C0119 C0120 C0121 C0122 C0123 C0124 C0125 C0126 C0127 C0128 C0129 C0130 C0131 C0132 C0133 C0134 C0135
 C0136 C0137 C0138 C0139 C0140 C0141 C0142 C0143 C0144 C0145 C0146 C0147 C0148 C0149 C0150 C0151 C0152
 C0153 C0154 C0155 C0156 C0157 C0158 C0159 C0160 C0161 C0162 C0163 C0164 C0165 C0166 C0167 C0168 C0169
 C0507 C0506 C0505 C0504 C0503 C0502 C0501 C0500 C0499 C0498 C0497 C0496 C0495 C0494 C0493 C0508
Generals
 C0522 C0521 C0520 C0519 C0518 C0517 C0516 C0515 C0514 C0513 C0512 C0511 C0510 C0509 C0492 C0491 C0490
 C0489 C0488 C0487 C0486 C0485 C0484 C0483 C0482 C0481 C0480 C0479 C0478 C0477 C0476 C0475 C0474 C0473
 C0472 C0471 C0470 C0469 C0468 C0467 C0466 C0465 C0464 C0463 C0462 C0461 C0460 C0459 C0458 C0457 C0456
 C0455 C0454 C0453 C0452 C0451 C0450 C0449 C0448 C0447 C0446 C0445 C0444 C0443 C0442 C0441 C0440 C0439
 C0438 C0437 C0436 C0435 C0434 C0433 C0432 C0431 C0430 C0429 C0428 C0427 C0426 C0425 C0424 C0423 C0422
 C0421 C0420 C0419 C0418 C0417 C0416 C0415 C0414 C0413 C0412 C0411 C0410 C0409 C0408 C0407 C0406 C0405
 C0404 C0403 C0402 C0401 C0400 C0399 C0398 C0397 C0396 C0395 C0394 C0393 C0392 C0391 C0390 C0389 C0388
 C0387 C0386 C0385 C0384 C0383 C0382 C0381 C0380 C0379 C0378 C0377 C0376 C0375 C0374 C0373 C0372 C0371
 C0370 C0369 C0368 C0367 C0366 C0365 C0364 C0363 C0362 C0361 C0360 C0359 C0358 C0357 C0356 C0355 C0354
 C0353 C0352 C0351 C0350 C0349 C0348 C0347 C0346 C0345 C0344 C0343 C0342 C0341 C0340 C0339 C0338 C0337
 C0336 C0335 C0334 C0333 C0332 C0331 C0330 C0329 C0328 C0327 C0326 C0325 C0324 C0323 C0322 C0321 C0320
 C0319 C0318 C0317 C0316 C0315 C0314 C0313 C0312 C0311 C0310 C0309 C0308 C0307 C0306 C0305 C0304 C0303
 C0302 C0301 C0300 C0299 C0298 C0297 C0296 C0295 C0294 C0293 C0292 C0291 C0290 C0289 C0288 C0287 C0286
 C0285 C0284 C0283 C0282 C0281 C0280 C0279 C0278 C0277 C0276 C0275 C0274 C0273 C0272 C0271 C0270 C0269
 C0268 C0267 C0266 C0265 C0264 C0263 C0262 C0261 C0260 C0259 C0258 C0257 C0256 C0255 C0254 C0253 C0252
 C0251 C0250 C0249 C0248 C0247 C0246 C0245 C0244 C0243 C0242 C0241 C0240 C0239 C0238 C0237 C0236 C0235
 C0234 C0233 C0232 C0231 C0230 C0229 C0228 C0227 C0226 C0225 C0224 C0223 C0222 C0221 C0220 C0219 C0218
 C0217 C0216 C0215 C0214 C0213 C0212 C0211 C0210 C0209 C0208 C0207 C0206 C0205 C0204 C0203 C0202 C0201
 C0200 C0199 C0198 C0197 C0196 C0195 C0194 C0193 C0192 C0191 C0190 C0189 C0188 C0187 C0186 C0185 C0184
 C0183 C0182 C0181 C0180 C0179 C0178 C0177 C0176 C0175 C0174 C0173 C0172 C0171 C0170 C0523
End
